p cnf 412 698
-1 -70 -13 76 0
-1 -70 -13 -76 0
-66 44 -10 77 0
-66 44 -10 -77 0
18 61 31 78 0
18 61 31 -78 0
-12 -50 -32 79 0
-12 -50 -32 -79 0
-44 -18 -22 80 0
-44 -18 -22 -80 0
-60 -67 48 81 0
-60 -67 48 -81 0
-63 38 73 82 0
-63 38 73 -82 0
71 55 75 83 0
71 55 75 -83 0
-40 -21 6 84 0
-40 -21 6 -84 0
54 40 22 85 0
54 40 22 -85 0
54 -3 -27 86 0
54 -3 -27 -86 0
-63 -13 -53 87 0
-63 -13 -53 -87 0
55 -30 67 88 0
55 -30 67 -88 0
-45 -60 28 89 0
-45 -60 28 -89 0
20 -21 -52 90 0
20 -21 -52 -90 0
74 -42 -66 91 0
74 -42 -66 -91 0
-5 30 53 92 0
-5 30 53 -92 0
-50 -69 56 93 0
-50 -69 56 -93 0
64 44 -4 94 0
64 44 -4 -94 0
47 -29 -6 95 0
47 -29 -6 -95 0
-11 -47 -2 96 0
-11 -47 -2 -96 0
-1 7 -19 97 0
-1 7 -19 -97 0
-33 14 -27 98 0
-33 14 -27 -98 0
62 -57 51 99 0
62 -57 51 -99 0
-48 -20 40 100 0
-48 -20 40 -100 0
7 40 -19 101 0
7 40 -19 -101 0
-50 35 3 102 0
-50 35 3 -102 0
-39 -50 -37 103 0
-39 -50 -37 -103 0
38 34 32 104 0
38 34 32 -104 0
47 8 43 105 0
47 8 43 -105 0
-21 11 75 106 0
-21 11 75 -106 0
35 -67 70 107 0
35 -67 70 -107 0
60 24 62 108 0
60 24 62 -108 0
72 -52 67 109 0
72 -52 67 -109 0
51 -36 -35 110 0
51 -36 -35 -110 0
-55 68 -49 111 0
-55 68 -49 -111 0
14 67 -59 112 0
14 67 -59 -112 0
20 13 67 113 0
20 13 67 -113 0
39 -31 -58 114 0
39 -31 -58 -114 0
58 -35 -8 115 0
58 -35 -8 -115 0
57 32 48 116 0
57 32 48 -116 0
22 25 70 117 0
22 25 70 -117 0
-48 -53 -36 118 0
-48 -53 -36 -118 0
45 -22 25 119 0
45 -22 25 -119 0
75 -36 42 120 0
75 -36 42 -120 0
62 -34 -52 121 0
62 -34 -52 -121 0
38 10 -13 122 0
38 10 -13 -122 0
56 61 23 123 0
56 61 23 -123 0
10 70 27 124 0
10 70 27 -124 0
43 22 39 125 0
43 22 39 -125 0
30 -15 -50 126 0
30 -15 -50 -126 0
69 -11 -49 127 0
69 -11 -49 -127 0
-51 -24 -48 128 0
-51 -24 -48 -128 0
3 49 68 129 0
3 49 68 -129 0
-33 -51 -36 130 0
-33 -51 -36 -130 0
-12 15 -3 131 0
-12 15 -3 -131 0
-26 14 62 132 0
-26 14 62 -132 0
61 -71 53 133 0
61 -71 53 -133 0
31 72 -65 134 0
31 72 -65 -134 0
-38 -58 49 135 0
-38 -58 49 -135 0
-61 -66 -49 136 0
-61 -66 -49 -136 0
38 3 8 137 0
38 3 8 -137 0
54 61 24 138 0
54 61 24 -138 0
46 -51 -14 139 0
46 -51 -14 -139 0
33 36 22 140 0
33 36 22 -140 0
39 18 -66 141 0
39 18 -66 -141 0
6 -43 -45 142 0
6 -43 -45 -142 0
-42 -45 -32 143 0
-42 -45 -32 -143 0
8 46 26 144 0
8 46 26 -144 0
61 -38 60 145 0
61 -38 60 -145 0
-8 7 -34 146 0
-8 7 -34 -146 0
41 -25 -7 147 0
41 -25 -7 -147 0
57 -4 -43 148 0
57 -4 -43 -148 0
63 1 13 149 0
63 1 13 -149 0
38 7 56 150 0
38 7 56 -150 0
-39 22 -30 151 0
-39 22 -30 -151 0
-36 -61 73 152 0
-36 -61 73 -152 0
41 -53 39 153 0
41 -53 39 -153 0
-51 -53 -33 154 0
-51 -53 -33 -154 0
-7 -29 -61 155 0
-7 -29 -61 -155 0
-11 14 -21 156 0
-11 14 -21 -156 0
13 47 27 157 0
13 47 27 -157 0
46 -54 -1 158 0
46 -54 -1 -158 0
-41 38 43 159 0
-41 38 43 -159 0
52 32 -63 160 0
52 32 -63 -160 0
-37 -29 -52 161 0
-37 -29 -52 -161 0
-24 6 -34 162 0
-24 6 -34 -162 0
-73 -62 27 163 0
-73 -62 27 -163 0
63 37 -50 164 0
63 37 -50 -164 0
-65 -12 -32 165 0
-65 -12 -32 -165 0
-17 -10 -3 166 0
-17 -10 -3 -166 0
56 -16 2 167 0
56 -16 2 -167 0
62 -63 -4 168 0
62 -63 -4 -168 0
26 49 -35 169 0
26 49 -35 -169 0
75 -69 -6 170 0
75 -69 -6 -170 0
6 -63 -64 171 0
6 -63 -64 -171 0
3 -37 -72 172 0
3 -37 -72 -172 0
21 -37 50 173 0
21 -37 50 -173 0
-24 -75 9 174 0
-24 -75 9 -174 0
-53 75 -7 175 0
-53 75 -7 -175 0
37 -36 40 176 0
37 -36 40 -176 0
6 -46 57 177 0
6 -46 57 -177 0
64 -70 -38 178 0
64 -70 -38 -178 0
-43 5 26 179 0
-43 5 26 -179 0
-42 24 61 180 0
-42 24 61 -180 0
34 -41 -48 181 0
34 -41 -48 -181 0
47 44 -56 182 0
47 44 -56 -182 0
16 -70 6 183 0
16 -70 6 -183 0
3 -7 8 184 0
3 -7 8 -184 0
32 16 -48 185 0
32 16 -48 -185 0
40 -47 14 186 0
40 -47 14 -186 0
-66 -20 -44 187 0
-66 -20 -44 -187 0
14 56 39 188 0
14 56 39 -188 0
22 -19 -9 189 0
22 -19 -9 -189 0
53 3 74 190 0
53 3 74 -190 0
73 -59 58 191 0
73 -59 58 -191 0
-12 62 49 192 0
-12 62 49 -192 0
-25 -46 70 193 0
-25 -46 70 -193 0
-66 -11 29 194 0
-66 -11 29 -194 0
-57 -16 3 195 0
-57 -16 3 -195 0
-66 -39 6 196 0
-66 -39 6 -196 0
-3 63 -52 197 0
-3 63 -52 -197 0
-67 -65 -60 198 0
-67 -65 -60 -198 0
-46 65 25 199 0
-46 65 25 -199 0
26 44 -27 200 0
26 44 -27 -200 0
-71 49 -55 201 0
-71 49 -55 -201 0
47 -12 -44 202 0
47 -12 -44 -202 0
-14 46 53 203 0
-14 46 53 -203 0
69 -71 -21 204 0
69 -71 -21 -204 0
-42 -65 18 205 0
-42 -65 18 -205 0
42 66 2 206 0
42 66 2 -206 0
-2 7 37 207 0
-2 7 37 -207 0
33 -43 61 208 0
33 -43 61 -208 0
-42 -35 -6 209 0
-42 -35 -6 -209 0
36 19 54 210 0
36 19 54 -210 0
-54 -21 7 211 0
-54 -21 7 -211 0
-2 62 69 212 0
-2 62 69 -212 0
4 58 69 213 0
4 58 69 -213 0
-55 58 -10 214 0
-55 58 -10 -214 0
-3 -53 -16 215 0
-3 -53 -16 -215 0
-62 -44 -67 216 0
-62 -44 -67 -216 0
25 46 -33 217 0
25 46 -33 -217 0
27 21 -32 218 0
27 21 -32 -218 0
25 -14 -37 219 0
25 -14 -37 -219 0
15 57 -49 220 0
15 57 -49 -220 0
-75 24 -7 221 0
-75 24 -7 -221 0
-38 -42 20 222 0
-38 -42 20 -222 0
-44 12 57 223 0
-44 12 57 -223 0
55 56 29 224 0
55 56 29 -224 0
-12 -30 66 225 0
-12 -30 66 -225 0
23 -59 -52 226 0
23 -59 -52 -226 0
5 13 36 227 0
5 13 36 -227 0
-61 -52 -32 228 0
-61 -52 -32 -228 0
58 -31 -44 229 0
58 -31 -44 -229 0
21 -58 -13 230 0
21 -58 -13 -230 0
40 66 56 231 0
40 66 56 -231 0
-10 -24 -43 232 0
-10 -24 -43 -232 0
65 33 28 233 0
65 33 28 -233 0
-9 -58 35 234 0
-9 -58 35 -234 0
-35 16 64 235 0
-35 16 64 -235 0
44 66 -22 236 0
44 66 -22 -236 0
54 -17 65 237 0
54 -17 65 -237 0
-71 -51 24 238 0
-71 -51 24 -238 0
-5 -54 -62 239 0
-5 -54 -62 -239 0
-16 63 56 240 0
-16 63 56 -240 0
-30 6 35 241 0
-30 6 35 -241 0
-32 30 66 242 0
-32 30 66 -242 0
-48 -67 24 243 0
-48 -67 24 -243 0
23 -68 -73 244 0
23 -68 -73 -244 0
-1 -64 -34 245 0
-1 -64 -34 -245 0
69 -6 -53 246 0
69 -6 -53 -246 0
28 -15 20 247 0
28 -15 20 -247 0
-46 40 27 248 0
-46 40 27 -248 0
13 -58 -7 249 0
13 -58 -7 -249 0
56 -66 44 250 0
56 -66 44 -250 0
-62 -40 25 251 0
-62 -40 25 -251 0
-30 20 23 252 0
-30 20 23 -252 0
9 8 53 253 0
9 8 53 -253 0
-50 15 -70 254 0
-50 15 -70 -254 0
37 5 52 255 0
37 5 52 -255 0
-24 -5 -63 256 0
-24 -5 -63 -256 0
55 -73 75 257 0
55 -73 75 -257 0
-16 55 -45 258 0
-16 55 -45 -258 0
6 -64 62 259 0
6 -64 62 -259 0
61 7 16 260 0
61 7 16 -260 0
-60 35 39 261 0
-60 35 39 -261 0
27 -62 -4 262 0
27 -62 -4 -262 0
63 -5 -30 263 0
63 -5 -30 -263 0
4 33 65 264 0
4 33 65 -264 0
65 10 -16 265 0
65 10 -16 -265 0
-12 -55 13 266 0
-12 -55 13 -266 0
11 49 -23 267 0
11 49 -23 -267 0
-24 -42 -27 268 0
-24 -42 -27 -268 0
-60 -43 29 269 0
-60 -43 29 -269 0
-50 -37 -41 270 0
-50 -37 -41 -270 0
-40 -75 41 271 0
-40 -75 41 -271 0
72 68 1 272 0
72 68 1 -272 0
-17 53 -4 273 0
-17 53 -4 -273 0
-39 -18 -10 274 0
-39 -18 -10 -274 0
-23 41 19 275 0
-23 41 19 -275 0
49 -70 -6 276 0
49 -70 -6 -276 0
-42 -43 56 277 0
-42 -43 56 -277 0
5 -4 62 278 0
5 -4 62 -278 0
-51 10 38 279 0
-51 10 38 -279 0
-42 25 70 280 0
-42 25 70 -280 0
-66 62 -20 281 0
-66 62 -20 -281 0
-59 43 34 282 0
-59 43 34 -282 0
48 15 -24 283 0
48 15 -24 -283 0
53 -73 5 284 0
53 -73 5 -284 0
-44 24 -31 285 0
-44 24 -31 -285 0
62 -74 30 286 0
62 -74 30 -286 0
72 53 74 287 0
72 53 74 -287 0
-51 63 -23 288 0
-51 63 -23 -288 0
-68 74 42 289 0
-68 74 42 -289 0
3 58 -47 290 0
3 58 -47 -290 0
1 7 -53 291 0
1 7 -53 -291 0
-61 -10 -25 292 0
-61 -10 -25 -292 0
67 15 -28 293 0
67 15 -28 -293 0
59 6 -48 294 0
59 6 -48 -294 0
49 -7 -44 295 0
49 -7 -44 -295 0
-1 -41 71 296 0
-1 -41 71 -296 0
-25 -56 -18 297 0
-25 -56 -18 -297 0
-14 -32 72 298 0
-14 -32 72 -298 0
-16 30 -64 299 0
-16 30 -64 -299 0
-29 -25 19 300 0
-29 -25 19 -300 0
50 29 2 301 0
50 29 2 -301 0
53 -6 27 302 0
53 -6 27 -302 0
41 -2 6 303 0
41 -2 6 -303 0
22 -3 -31 304 0
22 -3 -31 -304 0
60 -11 -74 305 0
60 -11 -74 -305 0
11 -34 -17 306 0
11 -34 -17 -306 0
-23 -39 46 307 0
-23 -39 46 -307 0
-58 30 -17 308 0
-58 30 -17 -308 0
3 -58 -67 309 0
3 -58 -67 -309 0
7 -53 -60 310 0
7 -53 -60 -310 0
68 67 -3 311 0
68 67 -3 -311 0
50 27 28 312 0
50 27 28 -312 0
-35 -58 46 313 0
-35 -58 46 -313 0
41 48 -65 314 0
41 48 -65 -314 0
-6 12 36 315 0
-6 12 36 -315 0
35 10 9 316 0
35 10 9 -316 0
-27 68 -39 317 0
-27 68 -39 -317 0
-71 47 -22 318 0
-71 47 -22 -318 0
48 65 -41 319 0
48 65 -41 -319 0
-21 28 -58 320 0
-21 28 -58 -320 0
73 52 10 321 0
73 52 10 -321 0
-19 41 20 322 0
-19 41 20 -322 0
-22 -15 4 323 0
-22 -15 4 -323 0
36 -28 16 324 0
36 -28 16 -324 0
47 -11 65 325 0
47 -11 65 -325 0
-29 -64 -59 326 0
-29 -64 -59 -326 0
66 -13 -39 327 0
66 -13 -39 -327 0
-42 -17 -72 328 0
-42 -17 -72 -328 0
72 22 -5 329 0
72 22 -5 -329 0
-50 69 -6 330 0
-50 69 -6 -330 0
47 52 -61 331 0
47 52 -61 -331 0
-29 5 -67 332 0
-29 5 -67 -332 0
-50 57 -4 333 0
-50 57 -4 -333 0
24 11 29 334 0
24 11 29 -334 0
-12 -27 30 335 0
-12 -27 30 -335 0
-22 -27 -12 336 0
-22 -27 -12 -336 0
-6 -46 -58 337 0
-6 -46 -58 -337 0
48 -42 49 338 0
48 -42 49 -338 0
-42 -18 48 339 0
-42 -18 48 -339 0
-19 -66 32 340 0
-19 -66 32 -340 0
75 -63 -32 341 0
75 -63 -32 -341 0
-2 -46 43 342 0
-2 -46 43 -342 0
29 15 -70 343 0
29 15 -70 -343 0
40 -1 -6 344 0
40 -1 -6 -344 0
-17 -15 50 345 0
-17 -15 50 -345 0
53 -63 -4 346 0
53 -63 -4 -346 0
-7 -75 -15 347 0
-7 -75 -15 -347 0
-3 13 73 348 0
-3 13 73 -348 0
-61 -55 32 349 0
-61 -55 32 -349 0
51 -8 42 350 0
51 -8 42 -350 0
-42 -34 17 351 0
-42 -34 17 -351 0
15 49 -14 352 0
15 49 -14 -352 0
11 25 10 353 0
11 25 10 -353 0
-40 -8 -4 354 0
-40 -8 -4 -354 0
-23 50 -2 355 0
-23 50 -2 -355 0
18 42 -15 356 0
18 42 -15 -356 0
-49 -27 -32 357 0
-49 -27 -32 -357 0
-60 -66 4 358 0
-60 -66 4 -358 0
19 38 34 359 0
19 38 34 -359 0
16 -56 7 360 0
16 -56 7 -360 0
75 62 -49 361 0
75 62 -49 -361 0
72 -70 -13 362 0
72 -70 -13 -362 0
7 41 -58 363 0
7 41 -58 -363 0
-37 -52 -19 364 0
-37 -52 -19 -364 0
27 14 32 365 0
27 14 32 -365 0
41 -30 63 366 0
41 -30 63 -366 0
1 -40 -3 367 0
1 -40 -3 -367 0
-5 74 -24 368 0
-5 74 -24 -368 0
-43 -45 35 369 0
-43 -45 35 -369 0
-37 66 47 370 0
-37 66 47 -370 0
-69 65 33 371 0
-69 65 33 -371 0
-65 5 42 372 0
-65 5 42 -372 0
52 22 -32 373 0
52 22 -32 -373 0
59 51 -11 374 0
59 51 -11 -374 0
51 -73 -41 375 0
51 -73 -41 -375 0
-25 -60 -55 376 0
-25 -60 -55 -376 0
59 31 64 377 0
59 31 64 -377 0
59 -75 29 378 0
59 -75 29 -378 0
-56 59 -12 379 0
-56 59 -12 -379 0
40 -52 46 380 0
40 -52 46 -380 0
-70 24 -21 381 0
-70 24 -21 -381 0
34 65 -16 382 0
34 65 -16 -382 0
-29 73 -38 383 0
-29 73 -38 -383 0
19 -69 22 384 0
19 -69 22 -384 0
-3 25 -74 385 0
-3 25 -74 -385 0
9 -25 22 386 0
9 -25 22 -386 0
15 -32 18 387 0
15 -32 18 -387 0
70 -7 -30 388 0
70 -7 -30 -388 0
70 7 37 389 0
70 7 37 -389 0
39 -46 37 390 0
39 -46 37 -390 0
-21 24 57 391 0
-21 24 57 -391 0
65 54 -27 392 0
65 54 -27 -392 0
-15 39 -14 393 0
-15 39 -14 -393 0
-42 -33 -18 394 0
-42 -33 -18 -394 0
-21 -34 9 395 0
-21 -34 9 -395 0
-18 -67 -33 396 0
-18 -67 -33 -396 0
9 -32 -34 397 0
9 -32 -34 -397 0
20 66 -29 398 0
20 66 -29 -398 0
15 -4 14 399 0
15 -4 14 -399 0
71 -7 41 400 0
71 -7 41 -400 0
401 402 403 404 0
401 402 403 -404 0
401 402 -403 404 0
401 402 -403 -404 0
401 -402 403 404 0
401 -402 403 -404 0
401 -402 -403 404 0
401 -402 -403 -404 0
-401 402 403 404 0
-401 402 403 -404 0
-401 402 -403 404 0
-401 402 -403 -404 0
-401 -402 403 404 0
-401 -402 403 -404 0
-401 -402 -403 404 0
-401 -402 -403 -404 0
405 406 407 408 0
405 406 407 -408 0
405 406 -407 408 0
405 406 -407 -408 0
405 -406 407 408 0
405 -406 407 -408 0
405 -406 -407 408 0
405 -406 -407 -408 0
-405 406 407 408 0
-405 406 407 -408 0
-405 406 -407 408 0
-405 406 -407 -408 0
-405 -406 407 408 0
-405 -406 407 -408 0
-405 -406 -407 408 0
-405 -406 -407 -408 0
409 410 411 412 0
409 410 411 -412 0
409 410 -411 412 0
409 410 -411 -412 0
409 -410 411 412 0
409 -410 411 -412 0
409 -410 -411 412 0
409 -410 -411 -412 0
-409 410 411 412 0
-409 410 411 -412 0
-409 410 -411 412 0
-409 410 -411 -412 0
-409 -410 411 412 0
-409 -410 411 -412 0
-409 -410 -411 412 0
-409 -410 -411 -412 0
